benchmarks_vrp/CMT12/fixed_c_size/CMT12_1.vrp
NAME: CMT12_1
TYPE: CVRP
COMMENT: 819.56 - Cluster Nr.1
DIMENSION: 11
CAPACITY: 200
EDGE_WEIGHT_TYPE: EUC_2D
NODE_COORD_TYPE: TWOD_COORDS
NODE_COORD_SECTION: 
7 20 50
8 8 45
2 0 45
9 2 40
10 5 45
11 10 35
5 40 50
4 0 40
6 10 40
1 5 35
3 8 40
DEPOT_SECTION: 
5
-1
DEMAND_SECTION: 
3 40
2 20
9 20
8 20
10 10
4 30
1 10
6 30
11 20
5 0
7 10
EOF
