benchmarks_vrp/CMT12/fixed_c_size/CMT12_1.tour
NAME: CMT12_1 solution
TYPE: TOUR
TOUR_SECTION:
5 7 -1
5 6 3 11 1 9 4 2 10 8 -1
-1
EOF